p cnf 9 27
-3 0
-4 0
-4 3 -8 -1 -2 -7 -5 0
8 0
8 9 4 5 0
-8 -9 -8 -7 6 1 -3 -6 0
5 0
9 -4 0
-9 -2 -3 1 5 -3 7 0
-2 7 -4 -6 0
-2 2 2 2 2 -4 0
-5 7 0
4 -1 7 -3 9 -2 0
-5 0
-9 6 0
9 4 -5 8 0
7 -7 -2 0
-9 0
1 -2 5 -8 -4 0
3 0
-2 -2 -9 0
4 -3 0
9 -4 0
-2 0
8 -7 3 1 -4 0
-6 0
4 8 5 -6 -4 4 6 -8 0